numNurses = 170;
hours = 64;
demand = [14 3 16 2 14 1 13 17 27 38 23 34 9 7 35 34 18 32 2 36 11 19 3 36 36 3 25 9 19 23 40 19 4 18 24 0 39 32 25 11 16 15 39 9 34 36 10 40 37 27 38 20 5 15 15 40 23 28 4 16 36 3 3 14];
minHours = 18;
maxHours = 23;
maxConsec = 21;
maxPresence = 35;